dates = {'2022-02-02','2022-02-03','2022-02-04','2022-02-05','2022-02-06','2022-02-07','2022-02-08','2022-02-09','2022-02-10','2022-02-11','2022-02-12','2022-02-13','2022-02-14','2022-02-15','2022-02-16','2022-02-17','2022-02-18','2022-02-19','2022-02-20','2022-02-21','2022-02-22','2022-02-23','2022-02-24','2022-02-25','2022-02-26','2022-02-27','2022-02-28','2022-03-01','2022-03-02','2022-03-03','2022-03-04','2022-03-05','2022-03-06','2022-03-07','2022-03-08','2022-03-09','2022-03-10','2022-03-11','2022-03-12','2022-03-13','2022-03-14','2022-03-15','2022-03-16','2022-03-17','2022-03-18','2022-03-19','2022-03-20','2022-03-21','2022-03-22','2022-03-23','2022-03-24','2022-03-25','2022-03-26','2022-03-27','2022-03-28','2022-03-29','2022-03-30','2022-03-31','2022-04-01','2022-04-02'};

daysOfWeek = [Wednesday,Thursday,Friday,Saturday,Sunday,Monday,Tuesday,Wednesday,Thursday,Friday,Saturday,Sunday,Monday,Tuesday,Wednesday,Thursday,Friday,Saturday,Sunday,Monday,Tuesday,Wednesday,Thursday,Friday,Saturday,Sunday,Monday,Tuesday,Wednesday,Thursday,Friday,Saturday,Sunday,Monday,Tuesday,Wednesday,Thursday,Friday,Saturday,Sunday,Monday,Tuesday,Wednesday,Thursday,Friday,Saturday,Sunday,Monday,Tuesday,Wednesday,Thursday,Friday,Saturday,Sunday,Monday,Tuesday,Wednesday,Thursday,Friday,Saturday];

% For this week, how many people will be here.
numPeople = [160,155,158,158,158,154,156,156,156,156,156,156,156,163,163,163,162,147
,161,157,157,157,148,162,148,148,135,139,136,125,125,125,125,117,122,121
,109,109,109,109,98,98,98,89,89,89,89,89,89,89,89,89,89,89
,89,89,89,89,89,89];

% Physical workers need 50 to 100 % more nutrients per day.
numPhysicalWorkers = [54.0,54.0,53.0,53.0,53.0,53.0,51.5,51.5,51.5,51.5,51.5,51.5,55.0,50.5
,50.5,50.5,50.5,50.5,47.0,47.0,47.0,47.0,47.0,46.0,46.0,46.0,46.0,42.0
,42.0,39.0,33.5,33.5,33.5,33.5,32.0,32.0,31.0,28.0,28.0,28.0,28.0,28.0
,28.0,28.0,21.0,21.0,21.0,21.0,21.0,21.0,21.0,21.0,21.0,21.0,21.0,21.0
,21.0,21.0,21.0,21.0];

% Males need +25% more nutrients per day.
numMen = [132,132,132,132,132,132,128,128,128,128,128,128,132,134,134,134,134,136
,145,133,129,135,129,135,135,121,121,112,112,109,100,100,100,100,100,100
,99,90,90,90,90,80,80,80,75,75,75,75,75,75,75,75,75,75
,75,75,75,75,75,75];

% Num people who do not eat categories. contains = {none, meat, milk, gluten, egg, nut, seed, sugars}
numRefusals = [| 0,0,7,1,0,0,23,0 | 0,23,2,15,0,0,0,0 | 0,18,0,0,0,12,0,0 | 0,18,0,0,0,12,0,0 | 0,18,0,0,0,12,0,0 | 0,0,1,16,0,0,0,0 | 0,7,0,0,0,14,16,11 | 0,7,0,0,0,14,16,11 | 0,7,0,0,0,14,16,11 | 0,7,0,0,0,14,16,11 | 0,7,0,0,0,14,16,11 | 0,7,0,0,0,14,16,11 | 0,7,0,0,0,14,16,11 | 0,6,8,0,0,0,0,0 | 0,6,8,0,0,0,0,0 | 0,6,8,0,0,0,0,0 | 0,0,22,7,33,29,15,0 | 0,7,17,0,0,15,22,8 | 0,0,18,17,6,0,3,0 | 0,11,0,0,7,24,24,12 | 0,11,0,0,7,24,24,12 | 0,11,0,0,7,24,24,12 | 0,0,0,0,0,1,0,0 | 0,0,35,25,8,13,6,24 | 0,0,0,0,15,10,0,3 | 0,0,0,0,15,10,0,3 | 0,34,25,0,0,0,8,0 | 0,0,7,18,2,4,8,5 | 0,0,0,18,0,12,0,0 | 0,0,0,3,0,0,22,0 | 0,0,0,3,0,0,22,0 | 0,0,0,3,0,0,22,0 | 0,0,0,3,0,0,22,0 | 0,0,8,0,9,0,8,0 | 0,13,11,13,0,0,0,8 | 0,17,0,14,16,2,0,0 | 0,0,12,12,13,5,0,0 | 0,0,12,12,13,5,0,0 | 0,0,12,12,13,5,0,0 | 0,0,12,12,13,5,0,0 | 0,7,0,0,8,0,0,2 | 0,7,0,0,8,0,0,2 | 0,7,0,0,8,0,0,2 | 0,6,9,8,12,18,0,0 | 0,6,9,8,12,18,0,0 | 0,6,9,8,12,18,0,0 | 0,6,9,8,12,18,0,0 | 0,6,9,8,12,18,0,0 | 0,6,9,8,12,18,0,0 | 0,6,9,8,12,18,0,0 | 0,6,9,8,12,18,0,0 | 0,6,9,8,12,18,0,0 | 0,6,9,8,12,18,0,0 | 0,6,9,8,12,18,0,0 | 0,6,9,8,12,18,0,0 | 0,6,9,8,12,18,0,0 | 0,6,9,8,12,18,0,0 | 0,6,9,8,12,18,0,0 | 0,6,9,8,12,18,0,0 | 0,6,9,8,12,18,0,0 |];

